NAME          COPTPROB
OBJSENSE
  MIN
ROWS
 N  __OBJ___
 L  C791    
 L  C3022   
 L  C3984   
 L  C8074   
 L  C9288   
COLUMNS
    MARKER    'MARKER'                 'INTORG'
    x1117     __OBJ___  -1
    x1117     C791      1
    x1117     C3984     1
    x1235     __OBJ___  -1
    x1235     C3022     1
    x1235     C8074     1
    x3963     __OBJ___  -1
    x3963     C791      1
    x3963     C9288     1
    x4189     __OBJ___  -1
    x4189     C3022     1
    x4189     C3984     1
    x4347     __OBJ___  -1
    x4347     C8074     1
    x4347     C9288     1
    MARKER    'MARKER'                 'INTEND'
RHS
    RHS       __OBJ___  2771
    RHS       C791      1
    RHS       C3022     1
    RHS       C3984     1
    RHS       C8074     1
    RHS       C9288     1
BOUNDS
 UP BOUND     x1117     1
 UP BOUND     x1235     1
 UP BOUND     x3963     1
 UP BOUND     x4189     1
 UP BOUND     x4347     1
ENDATA
